3
20
43
40	30
1	1	15	8	
2	2	9	7	30	4	
3	3	15	3	14	6	11	4	
4	3	24	3	30	2	4	10	
5	3	17	3	13	3	7	10	
6	2	8	6	5	14	
7	3	11	5	5	15	22	3	
8	3	7	14	13	3	14	6	
9	3	17	3	10	5	27	3	
10	3	7	11	15	3	7	7	
11	2	30	3	14	7	
12	1	9	6	
13	1	22	3	
14	2	6	10	17	3	
15	2	8	4	13	2	
16	2	13	4	4	6	
17	2	5	11	13	6	
18	1	30	4	
19	1	7	12	
20	3	12	7	13	6	8	5	
